solution status: optimal solution found
objective value:                                   14
x52                                                 1 	(obj:1)
x58                                                 1 	(obj:1)
x60                                                 1 	(obj:1)
x65                                                 1 	(obj:1)
x66                                                 1 	(obj:1)
x68                                                 1 	(obj:1)
x70                                                 1 	(obj:1)
x79                                                 1 	(obj:1)
x81                                                 1 	(obj:1)
x88                                                 1 	(obj:1)
x90                                                 1 	(obj:1)
x93                                                 1 	(obj:1)
x94                                                 1 	(obj:1)
x101                                                1 	(obj:1)
one.thingy.devices[1].thingy.v11_y                   23 	(obj:0)
one.thingy.devices[1].thingy.v11_z                   22 	(obj:0)
one.thingy.devices[0].thingy.v10_y                   23 	(obj:0)
one.thingy.devices[0].thingy.v10_z                   23 	(obj:0)
one.ctrl_a[7].flush_y                              24 	(obj:0)
one.ctrl_a[7].flush_z                              18 	(obj:0)
one.pinholes[0].hole_out_b_y                       24 	(obj:0)
one.pinholes[0].hole_out_b_z                       22 	(obj:0)
one.ctrl_a[9].flush_y                              18 	(obj:0)
one.ctrl_a[9].flush_z                              14 	(obj:0)
one.ctrl_a[8].hole_y                               22 	(obj:0)
one.ctrl_a[8].hole_z                               24 	(obj:0)
one.ctrl_a[7].hole_y                               24 	(obj:0)
one.ctrl_a[7].hole_z                               24 	(obj:0)
one.thingy.devices[1].thingy.v10_y                   22 	(obj:0)
one.thingy.devices[1].thingy.v10_z                   23 	(obj:0)
one.pinholes[1].hole_out_b_y                       11 	(obj:0)
one.pinholes[1].hole_out_b_z                       25 	(obj:0)
one.thingy.devices[2].thingy.v11_y                   22 	(obj:0)
one.thingy.devices[2].thingy.v11_z                   22 	(obj:0)
one.pinholes[3].hole_out_b_y                       20 	(obj:0)
one.pinholes[3].hole_out_b_z                       24 	(obj:0)
one.pinholes[2].hole_out_b_y                       21 	(obj:0)
one.pinholes[2].hole_out_b_z                        9 	(obj:0)
one.thingy.devices[3].thingy.v11_y                   21 	(obj:0)
one.thingy.devices[3].thingy.v11_z                   18 	(obj:0)
one.ctrl_a[8].flush_y                              24 	(obj:0)
one.ctrl_a[8].flush_z                              20 	(obj:0)
one.ctrl_a[9].hole_y                               23 	(obj:0)
one.ctrl_a[9].hole_z                               24 	(obj:0)
one.thingy.devices[0].thingy.v11_y                   24 	(obj:0)
one.thingy.devices[0].thingy.v11_z                   25 	(obj:0)
one.thingy.devices[2].thingy.v10_y                   20 	(obj:0)
one.thingy.devices[2].thingy.v10_z                   21 	(obj:0)
one.thingy.devices[3].thingy.v10_y                   22 	(obj:0)
one.thingy.devices[3].thingy.v10_z                   18 	(obj:0)
